
%FILE DATA:	Soccer Computational Problem for MiniZinc Models	%
%AUTHOR:	Jack Wall	%
%CONTACT:  	116397063@umail.ucc.ie			%
%LAST UPDATE:	03/02/2020, 18:19:35						%
%DESCRIPTION: 	99 games played with 11 games left				%


n=11; %number of teams

%Games to play
games=[|4,3|11,6|10,2|11,9|10,3|2,11|6,4|9,1|10,8|8,9|7,3|];

%Initial points
iPoints=[35,24,20,8,34,29,27,25,14,19,22];

%POSITION CONSTRAINTS
% [|teamID, operator, position|...]
% operators index:
%  1 for =  operator
%  2 for >  operator
%  3 for >= operator
%  4 for <  operator
%  5 for <= operator
positionConstraints=[|1,3,1|5,5,2|6,2,2|];